20  5
  0  42  1  97  2  68  3  91  4  44
  0  14  1  97  2  29  3  26  4  63
  0  23  1  30  2  9  3  11  4  84
  0  60  1  24  2  14  3  6  4  2
  0  61  1  10  2  72  3  61  4  9
  0  77  1  87  2  55  3  74  4  35
  0  1  1  1  2  19  3  62  4  56
  0  48  1  32  2  50  3  99  4  44
  0  22  1  23  2  29  3  10  4  16
  0  92  1  96  2  64  3  73  4  24
  0  90  1  48  2  77  3  27  4  46
  0  5  1  48  2  19  3  72  4  28
  0  87  1  96  2  95  3  5  4  61
  0  31  1  52  2  88  3  69  4  76
  0  81  1  82  2  61  3  38  4  97
  0  35  1  7  2  49  3  56  4  65
  0  10  1  67  2  28  3  70  4  45
  0  67  1  48  2  84  3  44  4  95
  0  16  1  93  2  62  3  35  4  47
  0  23  1  13  2  57  3  16  4  50
